* SDPA sparse format data
* File name = st_cqpjk2.dat-s
* mDim =  19, nBlock =  9
* size of bVect = 1 *  19
* size of sparseMatrix =  152 * 5
 19
  9
-8  4  4  4  4  4  4  4  4 
  -1.0000000000   -0.8000000000   -0.6000000000    0.6000000000    0.0000000000    0.0000000000    0.6000000000    0.0000000000    0.6000000000    0.0000000000    0.0000000000    0.0000000000    0.0000000000    0.0000000000    0.0000000000    0.0000000000    0.0000000000    0.0000000000    0.0000000000 
  5   1   1   1    1.0000000000
  6   1   2   2    1.0000000000
  8   1   3   3    1.0000000000
 14   1   4   4    1.0000000000
  4   1   5   5   -1.0000000000
  0   1   5   5   -1.0000000000
  7   1   6   6   -1.0000000000
  0   1   6   6   -1.0000000000
  9   1   7   7   -1.0000000000
  0   1   7   7   -1.0000000000
 14   1   8   8   -1.0000000000
  0   1   8   8   -1.0000000000
  0   2   1   1   -1.0000000000
  1   2   1   2    1.0000000000
  2   2   1   3    1.0000000000
  3   2   1   4    1.0000000000
  4   2   2   2    1.0000000000
  5   2   2   3    1.0000000000
  6   2   2   4    1.0000000000
  7   2   3   3    1.0000000000
  8   2   3   4    1.0000000000
  9   2   4   4    1.0000000000
  0   3   1   1   -1.0000000000
  1   3   1   1   -0.0000000001
  2   3   1   1   -0.0000000001
  3   3   1   1   -0.0000000001
  1   3   1   2    1.0000000000
  4   3   1   2   -0.0000000001
  5   3   1   2   -0.0000000001
  6   3   1   2   -0.0000000001
  2   3   1   3    1.0000000000
  5   3   1   3   -0.0000000001
  7   3   1   3   -0.0000000001
  8   3   1   3   -0.0000000001
  3   3   1   4    1.0000000000
  6   3   1   4   -0.0000000001
  8   3   1   4   -0.0000000001
  9   3   1   4   -0.0000000001
  4   3   2   2    1.0000000000
 10   3   2   2   -0.0000000001
 11   3   2   2   -0.0000000001
 12   3   2   2   -0.0000000001
  5   3   2   3    1.0000000000
 11   3   2   3   -0.0000000001
 13   3   2   3   -0.0000000001
 14   3   2   3   -0.0000000001
  6   3   2   4    1.0000000000
 12   3   2   4   -0.0000000001
 14   3   2   4   -0.0000000001
 15   3   2   4   -0.0000000001
  7   3   3   3    1.0000000000
 13   3   3   3   -0.0000000001
 16   3   3   3   -0.0000000001
 17   3   3   3   -0.0000000001
  8   3   3   4    1.0000000000
 14   3   3   4   -0.0000000001
 17   3   3   4   -0.0000000001
 18   3   3   4   -0.0000000001
  9   3   4   4    1.0000000000
 15   3   4   4   -0.0000000001
 18   3   4   4   -0.0000000001
 19   3   4   4   -0.0000000001
  1   4   1   1    1.0000000000
  4   4   1   2    1.0000000000
  5   4   1   3    1.0000000000
  6   4   1   4    1.0000000000
 10   4   2   2    1.0000000000
 11   4   2   3    1.0000000000
 12   4   2   4    1.0000000000
 13   4   3   3    1.0000000000
 14   4   3   4    1.0000000000
 15   4   4   4    1.0000000000
  2   5   1   1    1.0000000000
  5   5   1   2    1.0000000000
  7   5   1   3    1.0000000000
  8   5   1   4    1.0000000000
 11   5   2   2    1.0000000000
 13   5   2   3    1.0000000000
 14   5   2   4    1.0000000000
 16   5   3   3    1.0000000000
 17   5   3   4    1.0000000000
 18   5   4   4    1.0000000000
  3   6   1   1    1.0000000000
  6   6   1   2    1.0000000000
  8   6   1   3    1.0000000000
  9   6   1   4    1.0000000000
 12   6   2   2    1.0000000000
 14   6   2   3    1.0000000000
 15   6   2   4    1.0000000000
 17   6   3   3    1.0000000000
 18   6   3   4    1.0000000000
 19   6   4   4    1.0000000000
  0   7   1   1   -1.0000000000
  1   7   1   1   -1.0000000000
  1   7   1   2    1.0000000000
  4   7   1   2   -1.0000000000
  2   7   1   3    1.0000000000
  5   7   1   3   -1.0000000000
  3   7   1   4    1.0000000000
  6   7   1   4   -1.0000000000
  4   7   2   2    1.0000000000
 10   7   2   2   -1.0000000000
  5   7   2   3    1.0000000000
 11   7   2   3   -1.0000000000
  6   7   2   4    1.0000000000
 12   7   2   4   -1.0000000000
  7   7   3   3    1.0000000000
 13   7   3   3   -1.0000000000
  8   7   3   4    1.0000000000
 14   7   3   4   -1.0000000000
  9   7   4   4    1.0000000000
 15   7   4   4   -1.0000000000
  0   8   1   1   -1.0000000000
  2   8   1   1   -1.0000000000
  1   8   1   2    1.0000000000
  5   8   1   2   -1.0000000000
  2   8   1   3    1.0000000000
  7   8   1   3   -1.0000000000
  3   8   1   4    1.0000000000
  8   8   1   4   -1.0000000000
  4   8   2   2    1.0000000000
 11   8   2   2   -1.0000000000
  5   8   2   3    1.0000000000
 13   8   2   3   -1.0000000000
  6   8   2   4    1.0000000000
 14   8   2   4   -1.0000000000
  7   8   3   3    1.0000000000
 16   8   3   3   -1.0000000000
  8   8   3   4    1.0000000000
 17   8   3   4   -1.0000000000
  9   8   4   4    1.0000000000
 18   8   4   4   -1.0000000000
  0   9   1   1   -1.0000000000
  3   9   1   1   -1.0000000000
  1   9   1   2    1.0000000000
  6   9   1   2   -1.0000000000
  2   9   1   3    1.0000000000
  8   9   1   3   -1.0000000000
  3   9   1   4    1.0000000000
  9   9   1   4   -1.0000000000
  4   9   2   2    1.0000000000
 12   9   2   2   -1.0000000000
  5   9   2   3    1.0000000000
 14   9   2   3   -1.0000000000
  6   9   2   4    1.0000000000
 15   9   2   4   -1.0000000000
  7   9   3   3    1.0000000000
 17   9   3   3   -1.0000000000
  8   9   3   4    1.0000000000
 18   9   3   4   -1.0000000000
  9   9   4   4    1.0000000000
 19   9   4   4   -1.0000000000
